language Essence 1.3

letting course_load be
        function(1 --> 10, 2 --> 6, 3 --> 6, 4 --> 6, 5 --> 6, 6 --> 6, 7 --> 6, 8 --> 6, 9 --> 6, 10 --> 6, 11 --> 6,
                 12 --> 6, 13 --> 6, 14 --> 6, 15 --> 6, 16 --> 8, 17 --> 7, 18 --> 7, 19 --> 6, 20 --> 8, 21 --> 6,
                 22 --> 6, 23 --> 6, 24 --> 6, 25 --> 9, 26 --> 6, 27 --> 7, 28 --> 6, 29 --> 6, 30 --> 10, 31 --> 6,
                 32 --> 10, 33 --> 8, 34 --> 6, 35 --> 6, 36 --> 6, 37 --> 6, 38 --> 6, 39 --> 6, 40 --> 6, 41 --> 6,
                 42 --> 6)
letting courses_per_period_lb be 7
letting courses_per_period_ub be 38
letting load_per_period_lb be 19
letting load_per_period_ub be 46
letting n_courses be 42
letting n_periods be 6
letting prerequisite be
        relation((18, 24), (18, 26), (18, 27), (18, 28), (18, 30), (18, 31), (18, 35), (18, 37), (18, 38), (18, 41),
                 (19, 27), (19, 28), (19, 29), (19, 30), (19, 32), (19, 36), (19, 39), (19, 40), (19, 41), (20, 25),
                 (20, 29), (20, 32), (20, 33), (20, 34), (20, 35), (20, 36), (20, 38), (21, 24), (21, 25), (21, 26),
                 (21, 27), (21, 28), (21, 29), (21, 31), (21, 37), (21, 40))
$ Visualisation for prerequisite
$ 18 24
$ 18 26
$ 18 27
$ 18 28
$ 18 30
$ 18 31
$ 18 35
$ 18 37
$ 18 38
$ 18 41
$ 19 27
$ 19 28
$ 19 29
$ 19 30
$ 19 32
$ 19 36
$ 19 39
$ 19 40
$ 19 41
$ 20 25
$ 20 29
$ 20 32
$ 20 33
$ 20 34
$ 20 35
$ 20 36
$ 20 38
$ 21 24
$ 21 25
$ 21 26
$ 21 27
$ 21 28
$ 21 29
$ 21 31
$ 21 37
$ 21 40

